
Gurobi 6.5.2 (linux64) logging started Tue Sep  6 10:06:17 2016

Optimize a model with 21 rows, 33 columns and 67 nonzeros
Coefficient statistics:
  Matrix range    [1e+00, 2e+00]
  Objective range [6e+00, 9e+01]
  Bounds range    [1e+00, 1e+00]
  RHS range       [1e+00, 1e+00]
Found heuristic solution: objective 603
Presolve removed 11 rows and 10 columns
Presolve time: 0.00s
Presolved: 10 rows, 23 columns, 46 nonzeros
Variable types: 0 continuous, 23 integer (23 binary)

Root relaxation: objective 4.340000e+02, 12 iterations, 0.00 seconds

    Nodes    |    Current Node    |     Objective Bounds      |     Work
 Expl Unexpl |  Obj  Depth IntInf | Incumbent    BestBd   Gap | It/Node Time

*    0     0               0     434.0000000  434.00000  0.00%     -    0s

Explored 0 nodes (12 simplex iterations) in 0.00 seconds
Thread count was 8 (of 8 available processors)

Optimal solution found (tolerance 1.00e-04)
Best objective 4.340000000000e+02, best bound 4.340000000000e+02, gap 0.0%
